# Random Circle Problem
param d := 0.05; 
param n := 10; 
param radius := 2.00; 
param v0 := 
1 5.19
2 4.92
3 5.51
4 5.77
5 5.81
6 5.27
7 5.72
8 5.70
9 5.66
10 4.91
;
param cap := 
1 3.47881
2 3.90715
3 4.77820
4 5.06423
5 5.65597
6 0.01795
7 0.69434
8 0.80065
9 1.52108
10 2.77584
;
param x0 := 
1 2.00
2 1.62
3 0.62
4 -0.62
5 -1.62
6 -2.00
7 -1.62
8 -0.62
9 0.62
10 1.62
;
param y0 := 
1 -0.00
2 1.18
3 1.90
4 1.90
5 1.18
6 0.00
7 -1.18
8 -1.90
9 -1.90
10 -1.18
;
